DIMENSION: 8
EDGE_WEIGHT_TYPE: EXPLICIT
EDGE_WEIGHT_FORMAT: FULL_MATRIX
EDGE_WEIGHT_SECTION:
32767 100 28 86 72 1 80 51 
100 32767 86 64 83 13 97 32767 
28 86 32767 38 44 96 29 29 
86 64 38 32767 59 19 96 92 
72 83 44 59 32767 4 2 85 
1 13 96 19 4 32767 12 86 
80 97 29 96 2 12 32767 64 
51 32767 29 92 85 86 64 32767 
EOF